benchmarks/bfuzz0/1916355162299316343255384642104423856.smt2
(set-logic QF_FP)
(declare-const x0 (_ FloatingPoint 8 24))
(declare-const x1 (_ FloatingPoint 8 24))
(declare-const x2 (_ FloatingPoint 8 24))
(declare-const x3 (_ FloatingPoint 8 24))
(declare-const x4 (_ FloatingPoint 8 24))
(declare-const x5 (_ FloatingPoint 8 24))
(declare-const x6 (_ FloatingPoint 8 24))
(declare-const x7 (_ FloatingPoint 8 24))
(declare-const x8 (_ FloatingPoint 8 24))
(declare-const x9 (_ FloatingPoint 8 24))
(declare-const x10 (_ FloatingPoint 8 24))
(declare-const x11 (_ FloatingPoint 8 24))
(declare-const x12 (_ FloatingPoint 8 24))
(declare-const x13 (_ FloatingPoint 8 24))
(assert (fp.lt (fp.neg x4) (fp.sub RNE x2 x5)))
(assert (fp.eq (fp.sub RNE x9 x9) (fp.add RNE x4 x10)))
(assert (fp.eq (fp.sub RNE x12 x6) (fp.add RNE x12 x6)))
(assert (fp.lt (fp.sub RNE x1 x5) (fp.mul RNE x7 x9)))
(assert (fp.gt (fp.add RNE x9 x7) (fp.add RNE x9 x10)))
(assert (fp.gt (fp.neg x2) (fp.div RNE x5 x13)))
(assert (fp.gt (fp.mul RNE x13 x6) (fp.add RNE x2 x6)))
(assert (fp.gt (fp.mul RNE x10 x1) (fp.mul RNE x12 x12)))
(assert (fp.leq (fp.add RNE x8 x11) (fp.neg x11)))
(assert (fp.lt (fp.neg x1) (fp.sub RNE x3 x6)))
(check-sat)
