db/data/1916355162299316343255384642104423856.z3.out
sat
-------------------
8.445262084
